=====UNKNOWN=====
% time elapsed: 0.23 s
%%%mzn-stat: initTime=0.000857
%%%mzn-stat: solveTime=0.100066
%%%mzn-stat: solutions=0
%%%mzn-stat: variables=112
%%%mzn-stat: propagators=74
%%%mzn-stat: propagations=92264
%%%mzn-stat: nodes=6709
%%%mzn-stat: failures=3347
%%%mzn-stat: restarts=0
%%%mzn-stat: peakDepth=29
%%%mzn-stat-end
